61 87 70 30 77 73 82 88 63 
33 12 90 92 66 3 99 7 47 43 
42 41 19 74 91 100 60 69 56 
67 68 65 62 27 16 79 96 95 28 
75 55 21 44 38 39 64 83 78 
37 59 54 57 45 48 50 24 22 71 
20 76 15 11 2 5 98 93 
13 25 53 84 72 4 52 40 81 
34 32 6 80 85 10 23 
8 58 31 
26 49 86 46 94 89 
29 36 35 51 17 9 18 14 1 97 

